c LRAT-TRIM Version 0.2.1-dev trims LRAT proofs
c Copyright (c) 2023-2025 A. Biere, F. Pollitt, Univ. Freiburg
c reading CNF and LRAT files
c backward checking trimmed clauses after trimming proof
c reading CNF from 'D:\Projects\carrollian\data\evidence\ss_sat\benchmarks\scaled\php_6_5.cnf'
c found 'p cnf 30 81' header
c parsed CNF with 81 added clauses
c parsing original CNF took 0.00 seconds and needed 0 MB memory
c reading proof from 'D:\Projects\carrollian\data\evidence\ss_sat\proofs\scaled_cadical_lrat\php_6_5.cadical.lrat'
c parsed original proof with 169 added and 69 deleted clauses
c parsing original proof took 0.00 seconds and needed 0 MB memory
c trimmed 81 original clauses in CNF to 81 clauses 100%
c trimmed 169 added clauses in original proof to 150 clauses 89%
c trimming proof took 0.00 seconds
c backward checking proof took 0.00 seconds
s VERIFIED
c checked 150 clauses 0 per second
c resolved 1353 clauses 9.02 per checked clause
c assigned 1597 literals 10.65 per checked clause
c maximum memory usage of 0 MB
c total time of 0.00 seconds
